proyfinal/src/viki/013/experimentInOfficeAgust.take6.output/10e7a801-f29e-441f-8186-db8c5ec48650.als.dat
{'cnf.clauses': '118081',
 'cnf.totvars': '69608',
 'conflict literals': '2',
 'conflicts': '3',
 'decisions': '2338',
 'memused.mb': '17.34',
 'outcome': 'UNSAT',
 'propagations': '24461',
 'restarts': '1',
 'solver.msecs': 31,
 'task.msecs': 80}
