proyfinal/src/viki/013/experimentInOfficeAgust.take6.output/10e7a801-f29e-441f-8186-db8c5ec48650.als.out
Reading from standard input... Use '--help' for help.
============================[ Problem Statistics ]=============================
|                                                                             |
|  Number of variables:         69608                                         |
|  Number of clauses:          118081                                         |
|  Parse time:                   0.02 s                                       |
|                                                                             |
============================[ Search Statistics ]==============================
| Conflicts |          ORIGINAL         |          LEARNT          | Progress |
|           |    Vars  Clauses Literals |    Limit  Clauses Lit/Cl |          |
===============================================================================
===============================================================================
restarts              : 1
conflicts             : 3              (96 /sec)
decisions             : 2338           (0.00 % random) (75013 /sec)
propagations          : 24461          (784811 /sec)
conflict literals     : 2              (0.00 % deleted)
Memory used           : 17.34 MB
CPU time              : 0.031168 s

UNSATISFIABLE
